(set-info :origin "driver benchmark extracted from Microsoft SDV")
(set-logic HORN)
(declare-fun Proc27 (Int Int Int Bool Int) Bool)
(declare-fun Proc34 (Int Int Int Bool Int) Bool)
(declare-fun Proc24 (Int Int Int Bool Int) Bool)
(declare-fun Proc13 (Int Int Int Bool Int Int) Bool)
(declare-fun Proc8 (Int Int Int Bool Int) Bool)
(declare-fun Proc3 (Int Int Int Bool Int Int Int Int) Bool)
(declare-fun Proc9 (Int Int Int Bool Int Int Int) Bool)
(declare-fun Proc33 (Int Int Int Bool Int) Bool)
(declare-fun Proc18 (Int Int Int Bool Int Int Int Int) Bool)
(declare-fun Proc23 (Int Int Int Bool Int Int Int Bool Int) Bool)
(declare-fun Proc39 (Int Int Int Bool) Bool)
(declare-fun Proc21 (Int Int Int Bool Int) Bool)
(declare-fun Proc17 (Int Int Int Bool Int Int Int Int Int Int) Bool)
(declare-fun Proc22 (Int Int Int Bool Int Int) Bool)
(declare-fun Proc37 (Int Int Int Bool Int Int) Bool)
(declare-fun Proc43 (Int Int Int Bool) Bool)
(declare-fun Proc30 (Int Int Int Bool Int) Bool)
(declare-fun Proc12 (Int Int Int Bool Int Int) Bool)
(declare-fun Proc19 (Int Int Int Bool Int Int) Bool)
(declare-fun Proc7 (Int Int Int Bool Int Int Int) Bool)
(declare-fun Proc41 (Int Int Int Bool Int) Bool)
(declare-fun Proc32 (Int Int Int Bool Int) Bool)
(declare-fun Proc25 (Int Int Int Bool Int) Bool)
(declare-fun Proc11 (Int Int Int Bool) Bool)
(declare-fun Proc29 (Int Int Int Bool Int) Bool)
(declare-fun Proc5 (Int Int Int Bool Int Int Int Int Int Int) Bool)
(declare-fun Proc10 (Int Int Int Bool) Bool)
(declare-fun Proc0 (Int Int Int Bool Int Int Int Int Int Int) Bool)
(declare-fun Proc16 (Int Int Int Bool Int) Bool)
(declare-fun Proc36 (Int Int Int Bool Int) Bool)
(declare-fun Proc38 (Int Int Int Bool Int) Bool)
(declare-fun Proc44 (Int Int Int Bool Int Bool Int Int Int) Bool)
(declare-fun Proc20 (Int Int Int Bool Int Int Int Int) Bool)
(declare-fun Proc14 (Int Int Int Bool Int Int Int Int Int) Bool)
(declare-fun Proc31 (Int Int Int Bool Int) Bool)
(declare-fun Proc35 (Int Int Int Bool Int) Bool)
(declare-fun Proc4 (Int Int Int Bool Int Int Int Int) Bool)
(declare-fun Proc40 (Int Int Int Bool Int Int Int Int) Bool)
(declare-fun Proc26 (Int Int Int Bool Int) Bool)
(declare-fun Proc2 (Int Int Int Bool Int) Bool)
(declare-fun Proc42 (Int Int Int Bool Int Int Int Int Int) Bool)
(declare-fun Proc28 (Int Int Int Bool Int) Bool)
(declare-fun Proc15 (Int Int Int Bool) Bool)
(declare-fun Proc6 (Int Int Int Bool Int Int) Bool)
(declare-fun Proc1 (Int Int Int Bool Int Int Int Int) Bool)
(assert (forall ((A Int)
         (B Int)
         (C Int)
         (D Int)
         (E Int)
         (F Int)
         (G Int)
         (H Int)
         (I Int)
         (J Int)
         (K Int)
         (L Int)
         (M Int)
         (N Int)
         (O Int)
         (P Int)
         (Q Int)
         (R Int)
         (S Int)
         (T Int)
         (U Int)
         (V Int)
         (W Int)
         (X Int)
         (Y Int)
         (Z Int)
         (A1 Bool))
  (let ((a!1 (and (not (<= X (+ 4 Z))) (not (<= X Y))))
        (a!2 (or (not (Proc0 X V U A1 T W S Z R Q))
                 (not (= P Q))
                 (not (and (= O 259) (= N P)))))
        (a!3 (or (not (= P X)) (not (and (= O 259) (= N P)))))
        (a!4 (or (not (Proc0 X V U A1 M W L Z K J))
                 (not (= P J))
                 (not (and (= O 259) (= N P)))))
        (a!5 (or (not (Proc0 X V U A1 I W H Z G F))
                 (not (= P F))
                 (not (and (= O 259) (= N P)))))
        (a!6 (or (not (Proc0 X V U A1 E W D Z C B))
                 (not (= P B))
                 (not (and (= O 259) (= N P))))))
  (let ((a!7 (or (not A1)
                 (not (= Z Y))
                 (not a!1)
                 (and (or (= W 0) (and a!2 a!3))
                      (or (= W 0) (and a!4 a!3))
                      (or (= W 0) (and a!5 a!3))
                      (or (= W 0) (and a!6 a!3))))))
    (=> (not a!7) (Proc1 Y V U A1 A W O N))))))
(assert (forall ((A Int) (B Int) (C Int) (D Int) (E Int) (A1 Bool))
  (let ((a!1 (and (or (not (= E 0)) (not (= D E)))
                  (or (not (= E 1)) (not (= D E))))))
    (=> (not (or (not A1) a!1)) (Proc2 C B A A1 D)))))
(assert (forall ((A Int)
         (B Int)
         (C Int)
         (D Int)
         (E Int)
         (F Int)
         (G Int)
         (H Int)
         (I Int)
         (A1 Bool))
  (let ((a!1 (and (not (<= G (+ 1 I))) (not (<= G H)))))
  (let ((a!2 (not (or (not A1) (not (= I H)) (not a!1) (not (= F G))))))
    (=> a!2 (Proc3 H E D A1 C B A F))))))
(assert (forall ((A Int)
         (B Int)
         (C Int)
         (D Int)
         (E Int)
         (F Int)
         (G Int)
         (H Int)
         (A1 Bool))
  (let ((a!1 (not (or (not A1) (not (= H G))))))
    (=> a!1 (Proc4 F E D A1 C B A H)))))
(assert (forall ((A Int)
         (B Int)
         (C Int)
         (D Int)
         (E Int)
         (F Int)
         (G Int)
         (H Int)
         (I Int)
         (J Int)
         (K Int)
         (A1 Bool))
  (let ((a!1 (not (and (= K (- 1073741823)) (= J K)))))
  (let ((a!2 (and (or a!1 (not (= I J))) (or (not (= J 0)) (not (= I J))))))
    (=> (not (or (not A1) a!2)) (Proc5 H G F A1 E D C B A I))))))
(assert (forall ((A Int)
         (B Int)
         (C Int)
         (D Int)
         (E Int)
         (F Int)
         (G Int)
         (H Int)
         (I Int)
         (A1 Bool))
  (let ((a!1 (and (not (<= G (+ 1 I))) (not (<= G H)))))
  (let ((a!2 (or (not A1)
                 (not (= I H))
                 (not a!1)
                 (not (Proc6 G F E A1 I D))
                 (not (and (= C G) (= B D))))))
    (=> (not a!2) (Proc7 H F E A1 A C B))))))
(assert (forall ((A Int) (B Int) (C Int) (D Int) (E Int) (A1 Bool))
  (let ((a!1 (not (or (not A1) (not (= E 1))))))
    (=> a!1 (Proc6 D C B A1 A E)))))
(assert (forall ((A Int) (B Int) (C Int) (D Int) (A1 Bool))
  (=> false (Proc8 D C B A1 A))))
(assert (forall ((A Int)
         (B Int)
         (C Int)
         (D Int)
         (E Int)
         (F Int)
         (G Int)
         (H Int)
         (I Int)
         (J Int)
         (K Int)
         (L Int)
         (A1 Bool))
  (let ((a!1 (or (not (= G 1))
                 (not (and (= F H) (= E G)))
                 (not (and (= D F) (= C E)))))
        (a!2 (or (= G 1)
                 (not (and (= F H) (= E G)))
                 (not (and (= D F) (= C E)))))
        (a!3 (and (not (<= A (+ 1 B))) (not (<= A K)))))
  (let ((a!4 (or (not (= L 0))
                 (not (= B K))
                 (not a!3)
                 (not (Proc8 A L J A1 B))
                 (not (and (= F A) (= E J)))
                 (not (and (= D F) (= C E))))))
  (let ((a!5 (and (or (= L 0) (not (Proc7 K L J A1 I H G)) (and a!1 a!2)) a!4)))
    (=> (not (or (not A1) a!5)) (Proc9 K L J A1 I D C)))))))
(assert (forall ((A Int) (B Int) (C Int) (A1 Bool)) (=> A1 (Proc10 C B A A1))))
(assert (forall ((A Int) (B Int) (C Int) (A1 Bool)) (=> A1 (Proc11 C B A A1))))
(assert (forall ((A Int) (B Int) (C Int) (D Int) (E Int) (A1 Bool))
  (let ((a!1 (or (not A1) (not (and (= E 0) (= D 0))))))
    (=> (not a!1) (Proc12 C B A A1 E D)))))
(assert (forall ((A Int)
         (B Int)
         (C Int)
         (D Int)
         (E Int)
         (F Int)
         (G Int)
         (H Int)
         (I Int)
         (J Int)
         (K Int)
         (A1 Bool))
  (let ((a!1 (and (not (<= I (+ 4 K))) (not (<= I J))))
        (a!2 (or (not (Proc13 I G F A1 E K))
                 (not (= D (- 1073741802)))
                 (not (and (= C D) (= B I)))))
        (a!3 (or (not (= D (- 1073741802))) (not (and (= C D) (= B I))))))
  (let ((a!4 (not (or (not A1) (not (= K J)) (not a!1) (= H 0) (and a!2 a!3)))))
    (=> a!4 (Proc14 J G F A1 A H E C B))))))
(assert (forall ((A Int)
         (B Int)
         (C Int)
         (D Int)
         (E Int)
         (F Int)
         (G Int)
         (H Int)
         (I Int)
         (J Int)
         (K Int)
         (L Int)
         (M Int)
         (N Int)
         (O Int)
         (P Int)
         (Q Int)
         (A1 Bool))
  (let ((a!1 (and (not (<= O (+ 112 Q))) (not (<= O P))))
        (a!2 (not (and (not (= I 0)) (Proc18 K M L A1 H J G F))))
        (a!3 (not (and (not (= G 259)) (= E G))))
        (a!5 (not (and (not (= J 0)) (= E A)))))
  (let ((a!4 (or a!3
                 (= J 0)
                 (not (Proc19 F M L A1 J 0))
                 (not (and (= D E) (= C F)))))
        (a!6 (or (not (= G 259))
                 (not (Proc5 F M L A1 Q 0 0 0 0 B))
                 a!5
                 (= J 0)
                 (not (Proc19 F M L A1 J 0))
                 (not (and (= D E) (= C F))))))
  (let ((a!7 (not (or (not A1)
                      (not (= Q P))
                      (not a!1)
                      (= N 0)
                      (not (Proc15 O M L A1))
                      (not (Proc3 O M L A1 Q 0 0 K))
                      (not (Proc16 K M L A1 J))
                      (not (Proc17 K M L A1 J 127 Q 1 1 1))
                      (= I 0)
                      a!2
                      (and a!4 a!6)))))
    (=> a!7 (Proc20 P M L A1 N J D C)))))))
(assert (forall ((A Int)
         (B Int)
         (C Int)
         (D Int)
         (E Int)
         (F Int)
         (G Int)
         (H Int)
         (A1 Bool))
  (let ((a!1 (and (or (= C 0) (not (Proc4 G F E A1 B 0 0 A))) (not (= C 0)))))
  (let ((a!2 (and (or (not (Proc2 G F E A1 D)) (not (= C D)) a!1)
                  (or (not (= C 1)) a!1))))
    (=> (not (or (not A1) (= H 0) a!2)) (Proc13 G F E A1 B H))))))
(assert (forall ((A Int)
         (B Int)
         (C Int)
         (D Int)
         (E Int)
         (F Int)
         (G Int)
         (H Int)
         (I Int)
         (J Int)
         (K Int)
         (L Int)
         (M Int)
         (N Int)
         (O Int)
         (A1 Bool)
         (B1 Bool)
         (C1 Bool)
         (D1 Bool))
  (let ((a!1 (not (and (not (<= O 0)) (Proc21 O N M D1 L))))
        (a!2 (not (and (= E G) (= D K) (= C H) (= B1 C1) (= B I)))))
  (let ((a!3 (or (= H 0) (not (and (= G F) (not C1))) a!2))
        (a!4 (or (not (and (= H 0) (= A1 D1)))
                 (not (and (= G A) (= C1 A1)))
                 a!2)))
  (let ((a!5 (and (or (= H 1) (and a!3 a!4)) (or (not (= H 1)) (and a!3 a!4)))))
  (let ((a!6 (not (or (not D1)
                      a!1
                      (not (Proc12 L N M D1 K J))
                      (not (Proc11 L K J D1))
                      (not (Proc10 L K J D1))
                      (not (Proc22 L K J D1 I H))
                      a!5))))
    (=> a!6 (Proc23 O N M D1 E D C B1 B))))))))
(assert (forall ((A Int) (B Int) (C Int) (D Int) (A1 Bool))
  (let ((a!1 (not (or (not A1) (not (= D 1))))))
    (=> a!1 (Proc24 C B A A1 D)))))
(assert (forall ((A Int) (B Int) (C Int) (D Int) (A1 Bool))
  (let ((a!1 (not (or (not A1) (not (= D 0))))))
    (=> a!1 (Proc25 C B A A1 D)))))
(assert (forall ((A Int) (B Int) (C Int) (D Int) (A1 Bool))
  (let ((a!1 (not (or (not A1) (not (= D 1))))))
    (=> a!1 (Proc26 C B A A1 D)))))
(assert (forall ((A Int) (B Int) (C Int) (D Int) (A1 Bool))
  (let ((a!1 (not (or (not A1) (not (= D 0))))))
    (=> a!1 (Proc27 C B A A1 D)))))
(assert (forall ((A Int) (B Int) (C Int) (D Int) (A1 Bool))
  (let ((a!1 (not (or (not A1) (not (= D 1))))))
    (=> a!1 (Proc28 C B A A1 D)))))
(assert (forall ((A Int) (B Int) (C Int) (D Int) (A1 Bool))
  (let ((a!1 (not (or (not A1) (not (= D 1))))))
    (=> a!1 (Proc29 C B A A1 D)))))
(assert (forall ((A Int) (B Int) (C Int) (D Int) (A1 Bool))
  (let ((a!1 (not (or (not A1) (not (= D 1))))))
    (=> a!1 (Proc30 C B A A1 D)))))
(assert (forall ((A Int) (B Int) (C Int) (D Int) (A1 Bool))
  (let ((a!1 (not (or (not A1) (not (= D 1))))))
    (=> a!1 (Proc31 C B A A1 D)))))
(assert (forall ((A Int) (B Int) (C Int) (D Int) (A1 Bool))
  (let ((a!1 (not (or (not A1) (not (= D 1))))))
    (=> a!1 (Proc32 C B A A1 D)))))
(assert (forall ((A Int) (B Int) (C Int) (D Int) (A1 Bool))
  (let ((a!1 (not (or (not A1) (not (= D 0))))))
    (=> a!1 (Proc33 C B A A1 D)))))
(assert (forall ((A Int) (B Int) (C Int) (D Int) (A1 Bool))
  (let ((a!1 (not (or (not A1) (not (= D 0))))))
    (=> a!1 (Proc34 C B A A1 D)))))
(assert (forall ((A Int) (B Int) (C Int) (D Int) (E Int) (A1 Bool))
  (let ((a!1 (or (not A1) (not (= E (- 1073741823))) (not (= D E)))))
    (=> (not a!1) (Proc35 C B A A1 D)))))
(assert (forall ((A Int)
         (B Int)
         (C Int)
         (D Int)
         (E Int)
         (F Int)
         (G Int)
         (H Int)
         (I Int)
         (A1 Bool))
  (let ((a!1 (or (not A1)
                 (not (Proc1 I H G A1 F E D C))
                 (not (and (= B D) (= A C))))))
    (=> (not a!1) (Proc18 I H G A1 F E B A)))))
(assert (forall ((A Int) (B Int) (C Int) (D Int) (E Int) (A1 Bool))
  (=> A1 (Proc19 E D C A1 B A))))
(assert (forall ((A Int) (B Int) (C Int) (D Int) (A1 Bool))
  (let ((a!1 (not (or (not A1) (not (= D 1))))))
    (=> a!1 (Proc36 C B A A1 D)))))
(assert (forall ((A Int) (B Int) (C Int) (D Int) (A1 Bool)) (=> A1 (Proc16 D C B A1 A))))
(assert (forall ((A Int)
         (B Int)
         (C Int)
         (D Int)
         (E Int)
         (F Int)
         (G Int)
         (H Int)
         (I Int)
         (A1 Bool))
  (let ((a!1 (and (or (not (= I H)) (not (= G I)))
                  (or (not (= I F)) (not (= G I)))
                  (or (not (= I E)) (not (= G I))))))
    (=> (not (or (not A1) a!1)) (Proc37 D C B A1 A G)))))
(assert (forall ((A Int)
         (B Int)
         (C Int)
         (D Int)
         (E Int)
         (F Int)
         (G Int)
         (H Int)
         (I Int)
         (J Int)
         (A1 Bool))
  (let ((a!1 (not (or (not A1) (not (Proc37 J I H A1 G F)) (= F 0)))))
    (=> a!1 (Proc17 J I H A1 G E D C B A)))))
(assert (forall ((A Int)
         (B Int)
         (C Int)
         (D Int)
         (E Int)
         (F Int)
         (G Int)
         (H Int)
         (I Int)
         (J Int)
         (K Int)
         (L Int)
         (M Int)
         (N Int)
         (O Int)
         (P Int)
         (Q Int)
         (R Int)
         (S Int)
         (T Int)
         (U Int)
         (A1 Bool))
  (let ((a!1 (not (Proc40 O S R A1 N U M L)))
        (a!2 (not (and (= I K) (= H M) (= G L)))))
  (let ((a!3 (or (not (and (= L 1) (= K J))) a!2)))
  (let ((a!4 (and a!3 (or (= L 1) (= U 0) (not (= K N)) a!2))))
  (let ((a!5 (or (= Q 0)
                 (not (Proc35 T S R A1 P))
                 (not (and (= O T) (= N P)))
                 a!1
                 a!4))
        (a!6 (or (= Q 0)
                 (not (Proc35 T S R A1 F))
                 (not (and (= O T) (= N F)))
                 a!1
                 a!4))
        (a!7 (or (not (Proc35 T S R A1 E)) (not (and (= O T) (= N E))) a!1 a!4))
        (a!8 (or (not (Proc35 T S R A1 D)) (not (and (= O T) (= N D))) a!1 a!4))
        (a!9 (or (= Q 0)
                 (not (Proc41 T S R A1 U))
                 (not (Proc20 T S R A1 C U B A))
                 (not (and (= O A) (= N B)))
                 a!1
                 a!4)))
  (let ((a!10 (not (or (not A1)
                       (= U 0)
                       (not (Proc38 T S R A1 U))
                       (= Q 0)
                       (not (Proc39 T S R A1))
                       (and a!5 a!6 a!7 a!8 a!9)))))
    (=> a!10 (Proc42 T S R A1 C U I H G)))))))))
(assert (forall ((A Int)
         (B Int)
         (C Int)
         (D Int)
         (E Int)
         (F Int)
         (G Int)
         (H Int)
         (I Int)
         (J Int)
         (K Int)
         (L Int)
         (M Int)
         (N Int)
         (A1 Bool))
  (let ((a!1 (or (not (and (= I N) (= H 0))) (not (and (= G H) (= F I)))))
        (a!2 (or (not (Proc14 N M L A1 E K D C B))
                 (= A 0)
                 (not (and (= I B) (= H C)))
                 (not (and (= G H) (= F I))))))
  (let ((a!3 (not (or (not A1)
                      (not (Proc37 N M L A1 K J))
                      (= J 0)
                      (and a!1 a!2)))))
    (=> a!3 (Proc0 N M L A1 E K D A G F))))))
(assert (forall ((A Int) (B Int) (C Int) (D Int) (E Int) (A1 Bool))
  (=> (not (or (not A1) (= E 0) (= D 0))) (Proc41 C B A A1 E))))
(assert (forall ((A Int) (B Int) (C Int) (D Int) (A1 Bool))
  (=> (not (or (not A1) (= D 0))) (Proc38 C B A A1 D))))
(assert (forall ((A Int) (B Int) (C Int) (A1 Bool)) (=> A1 (Proc15 C B A A1))))
(assert (forall ((A Int)
         (B Int)
         (C Int)
         (D Int)
         (E Int)
         (F Int)
         (G Int)
         (H Int)
         (I Int)
         (J Int)
         (K Int)
         (L Int)
         (M Int)
         (N Int)
         (O Int)
         (P Int)
         (Q Int)
         (R Int)
         (S Int)
         (T Int)
         (U Int)
         (V Int)
         (W Int)
         (X Int)
         (A1 Bool))
  (let ((a!1 (or (not (and (= I X) (= H V))) (not (and (= G I) (= F H)))))
        (a!2 (or (not (= A 1))
                 (not (and (= I B) (= H A)))
                 (not (and (= G I) (= F H)))))
        (a!3 (or (= A 1)
                 (not (and (= I B) (= H A)))
                 (not (and (= G I) (= F H)))))
        (a!4 (or (not (= U 0))
                 (not (and (= I X) (= H V)))
                 (not (and (= G I) (= F H))))))
  (let ((a!5 (and a!1
                  (or (= U 0)
                      (not (Proc43 X W V A1))
                      (not (Proc42 X W V A1 E D C B A))
                      (and a!2 a!3))
                  a!4)))
  (let ((a!6 (not (or (not A1)
                      (not (Proc26 X W V A1 U))
                      (not (Proc33 X W V A1 T))
                      (not (Proc27 X W V A1 S))
                      (not (Proc32 X W V A1 R))
                      (not (Proc25 X W V A1 Q))
                      (not (Proc29 X W V A1 P))
                      (not (Proc36 X W V A1 O))
                      (not (Proc34 X W V A1 N))
                      (not (Proc24 X W V A1 M))
                      (not (Proc30 X W V A1 L))
                      (not (Proc31 X W V A1 K))
                      (not (Proc28 X W V A1 J))
                      a!5))))
    (=> a!6 (Proc22 X W V A1 G F)))))))
(assert (forall ((A Int) (B Int) (C Int) (A1 Bool)) (=> A1 (Proc39 C B A A1))))
(assert (forall ((A Int)
         (B Int)
         (C Int)
         (D Int)
         (E Int)
         (F Int)
         (G Int)
         (H Int)
         (I Int)
         (J Int)
         (K Int)
         (A1 Bool))
  (let ((a!1 (and (not (<= I (+ 1 K))) (not (<= I J))))
        (a!2 (or (not (= E 1)) (not (and (= D F) (= C E)))))
        (a!3 (or (= E 1) (not (and (= D F) (= C E))))))
  (let ((a!4 (not (or (not A1)
                      (not (= K J))
                      (not a!1)
                      (not (Proc9 I H G A1 K F E))
                      (and a!2 a!3)))))
    (=> a!4 (Proc40 J H G A1 B A D C))))))
(assert (forall ((A Int) (B Int) (C Int) (A1 Bool)) (=> A1 (Proc43 C B A A1))))
(assert (forall ((A Int)
         (B Int)
         (C Int)
         (D Int)
         (E Int)
         (F Int)
         (G Int)
         (H Int)
         (I Int)
         (J Int)
         (K Int)
         (L Int)
         (M Int)
         (N Int)
         (O Int)
         (P Int)
         (Q Int)
         (R Int)
         (S Int)
         (T Int)
         (U Int)
         (V Int)
         (W Int)
         (X Int)
         (Y Int)
         (Z Int)
         (A1 Bool)
         (E1 Int)
         (F1 Int)
         (G1 Int)
         (H1 Int)
         (I1 Int)
         (J1 Int)
         (K1 Int)
         (L1 Int)
         (M1 Int)
         (N1 Int)
         (O1 Int)
         (P1 Int)
         (Q1 Int)
         (R1 Int)
         (S1 Int)
         (T1 Int)
         (U1 Int)
         (V1 Int)
         (W1 Int)
         (X1 Int)
         (Y1 Int)
         (Z1 Int)
         (A2 Int)
         (B2 Int)
         (C2 Int)
         (D2 Int)
         (E2 Int)
         (F2 Int))
  (let ((a!1 (and (not (<= D2 (+ 4 F2))) (not (<= D2 E2))))
        (a!2 (and (= C2 D2)
                  (not (<= B2 (+ 332 C2)))
                  (not (<= B2 D2))
                  (= A2 B2)
                  (not (<= Z1 (+ 4 A2)))
                  (not (<= Z1 B2))
                  (= Y1 Z1)
                  (not (<= X1 (+ 536 Y1)))))
        (a!3 (and (not (<= X1 Z1))
                  (= W1 X1)
                  (not (<= V1 (+ 240 W1)))
                  (not (<= V1 X1))
                  (= U1 V1)
                  (not (<= T1 (+ 240 U1)))
                  (not (<= T1 V1))
                  (= S1 T1)
                  (not (<= R1 (+ 536 S1)))
                  (not (<= R1 T1))
                  (= Q1 R1)
                  (not (<= P1 (+ 240 Q1)))
                  (not (<= P1 R1))
                  (= O1 P1)
                  (not (<= N1 (+ 4 O1)))
                  (not (<= N1 P1))
                  (= M1 N1)
                  (not (<= L1 (+ 536 M1)))
                  (not (<= L1 N1))
                  (= K1 L1)
                  (not (<= J1 (+ 332 K1)))
                  (not (<= J1 L1))
                  (= I1 J1)
                  (not (<= H1 (+ 240 I1)))
                  (not (<= H1 J1))
                  (= G1 H1)
                  (not (<= F1 (+ 240 G1)))
                  (not (<= F1 H1))
                  (= E1 F1)
                  (not (<= Z (+ 332 E1)))
                  (not (<= Z F1))
                  (= Y Z)
                  (not (<= X (+ 4 Y)))
                  (not (<= X Z))
                  (= W X)
                  (not (<= V (+ 536 W)))
                  (not (<= V X))
                  (= U V)
                  (not (<= T (+ 240 U)))
                  (not (<= T V))
                  (= S T)
                  (not (<= R (+ 240 S)))
                  (not (<= R T))
                  (= Q R)
                  (not (<= P (+ 240 Q)))
                  (not (<= P R))
                  (= O P)
                  (not (<= N (+ 240 O)))
                  (not (<= N P))
                  (= M N)
                  (not (<= L (+ 240 M)))
                  (not (<= L N))
                  (= K L)
                  (not (<= J (+ 40 K)))
                  (not (<= J L))
                  (= I J)
                  (not (<= H (+ 332 I)))
                  (not (<= H J))
                  (= G H)
                  (not (<= F (+ 4 G)))
                  (not (<= F H))
                  (= E F)
                  (not (<= D (+ 40 E)))
                  (not (<= D F)))))
  (let ((a!4 (not (or (not A1)
                      (not (= F2 E2))
                      (not a!1)
                      (not a!2)
                      (not a!3)
                      (not (= C D))))))
    (=> a!4 (Proc21 E2 B A A1 C))))))
(assert (forall ((A Int)
         (B Int)
         (C Int)
         (D Int)
         (E Int)
         (F Int)
         (G Int)
         (H Int)
         (I Int)
         (J Int)
         (K Int)
         (A1 Bool)
         (B1 Bool)
         (C1 Bool))
  (let ((a!1 (or (not C1) (not (and (Proc23 K J I true H G F B1 E) (not B1))))))
    (=> (not a!1) (Proc44 K J I C1 D A1 C B A)))))
(assert (let ((a!1 (exists ((V0 Int)
                    (V1 Int)
                    (V2 Int)
                    (V3 Bool)
                    (V4 Int)
                    (V5 Bool)
                    (V6 Int)
                    (V7 Int)
                    (V8 Int))
             (not (=> (and (Proc44 V0 V1 V2 V3 V4 V5 V6 V7 V8) (not false))
                      false)))))
  (not a!1)))

(check-sat)
